(set-info :smt-lib-version 2.6)
(set-logic QF_UF)
(set-info :source |
Generated by: Aman Goel (amangoel@umich.edu), Karem A. Sakallah (karem@umich.edu)
Generated on: 2018-04-06

Generated by the tool Averroes 2 (successor of [1]) which implements safety property
verification on hardware systems.

This SMT problem belongs to a set of SMT problems generated by applying Averroes 2
to benchmarks derived from [2-5].

A total of 412 systems (345 from [2], 19 from [3], 26 from [4], 22 from [5]) were
syntactically converted from their original formats (using [6, 7]), and given to 
Averroes 2 to perform property checking with abstraction (wide bit-vectors -> terms, 
wide operators -> UF) using SMT solvers [8, 9].

[1] Lee S., Sakallah K.A. (2014) Unbounded Scalable Verification Based on Approximate
Property-Directed Reachability and Datapath Abstraction. In: Biere A., Bloem R. (eds)
Computer Aided Verification. CAV 2014. Lecture Notes in Computer Science, vol 8559.
Springer, Cham
[2] http://fmv.jku.at/aiger/index.html#beem
[3] http://www.cs.cmu.edu/~modelcheck/vcegar
[4] http://www.cprover.org/hardware/v2c
[5] http://github.com/aman-goel/verilogbench
[6] http://www.clifford.at/yosys
[7] http://github.com/chengyinwu/V3
[8] http://github.com/Z3Prover/z3
[9] http://github.com/SRI-CSL/yices2

id: h_FIFO
query-maker: "Yices 2"
query-time: 5.940000 ms
query-class: abstract
query-category: oneshot
query-type: regular
status: sat
|)
(set-info :license "https://creativecommons.org/licenses/by/4.0/")
(set-info :category "industrial")

;
(set-info :status sat)
(declare-sort utt$3 0)
(declare-sort utt$4 0)
(declare-sort utt$28 0)
(declare-sort utt$31 0)
(declare-sort utt$32 0)
(declare-fun Add_32_32_32 (utt$32 utt$32 ) utt$32)
(declare-fun Concat_32_1_31 (Bool utt$31 ) utt$32)
(declare-fun Concat_32_4_28 (utt$4 utt$28 ) utt$32)
(declare-fun Concat_4_1_1_1_1 (Bool Bool Bool Bool ) utt$4)
(declare-fun Extract_1_0_0_3 (utt$3 ) Bool)
(declare-fun Extract_1_0_0_4 (utt$4 ) Bool)
(declare-fun Extract_1_1_1_3 (utt$3 ) Bool)
(declare-fun Extract_1_1_1_4 (utt$4 ) Bool)
(declare-fun Extract_1_2_2_3 (utt$3 ) Bool)
(declare-fun Extract_1_2_2_4 (utt$4 ) Bool)
(declare-fun Extract_1_3_3_4 (utt$4 ) Bool)
(declare-fun Extract_3_2_0_32 (utt$32 ) utt$3)
(declare-fun Extract_3_2_0_4 (utt$4 ) utt$3)
(declare-fun Extract_4_3_0_32 (utt$32 ) utt$4)
(declare-fun Sub_32_32_32 (utt$32 utt$32 ) utt$32)
(declare-fun y$101 () Bool)
(declare-fun y$108 () Bool)
(declare-fun y$109 () Bool)
(declare-fun y$11 () Bool)
(declare-fun y$110 () Bool)
(declare-fun y$112 () Bool)
(declare-fun y$116 () Bool)
(declare-fun y$121 () Bool)
(declare-fun y$122 () Bool)
(declare-fun y$123 () Bool)
(declare-fun y$125 () Bool)
(declare-fun y$129 () Bool)
(declare-fun y$13 () Bool)
(declare-fun y$134 () Bool)
(declare-fun y$135 () Bool)
(declare-fun y$136 () Bool)
(declare-fun y$138 () Bool)
(declare-fun y$142 () Bool)
(declare-fun y$148 () Bool)
(declare-fun y$149 () Bool)
(declare-fun y$15 () Bool)
(declare-fun y$150 () Bool)
(declare-fun y$152 () Bool)
(declare-fun y$158 () Bool)
(declare-fun y$164 () Bool)
(declare-fun y$170 () Bool)
(declare-fun y$176 () Bool)
(declare-fun y$18 () Bool)
(declare-fun y$182 () Bool)
(declare-fun y$188 () Bool)
(declare-fun y$196 () Bool)
(declare-fun y$20 () Bool)
(declare-fun y$202 () Bool)
(declare-fun y$208 () Bool)
(declare-fun y$214 () Bool)
(declare-fun y$22 () Bool)
(declare-fun y$220 () Bool)
(declare-fun y$226 () Bool)
(declare-fun y$232 () Bool)
(declare-fun y$238 () Bool)
(declare-fun y$24 () Bool)
(declare-fun y$244 () Bool)
(declare-fun y$250 () Bool)
(declare-fun y$258 () Bool)
(declare-fun y$26 () Bool)
(declare-fun y$264 () Bool)
(declare-fun y$270 () Bool)
(declare-fun y$276 () Bool)
(declare-fun y$28 () Bool)
(declare-fun y$282 () Bool)
(declare-fun y$284 () Bool)
(declare-fun y$297 () Bool)
(declare-fun y$299 () Bool)
(declare-fun y$3 () Bool)
(declare-fun y$305 () utt$4)
(declare-fun y$309 () Bool)
(declare-fun y$314 () Bool)
(declare-fun y$316 () Bool)
(declare-fun y$319 () Bool)
(declare-fun y$32 () Bool)
(declare-fun y$323 () Bool)
(declare-fun y$33 () Bool)
(declare-fun y$336 () Bool)
(declare-fun y$340 () utt$4)
(declare-fun y$348 () utt$4)
(declare-fun y$36 () Bool)
(declare-fun y$362 () Bool)
(declare-fun y$366 () Bool)
(declare-fun y$370 () Bool)
(declare-fun y$374 () Bool)
(declare-fun y$378 () Bool)
(declare-fun y$382 () Bool)
(declare-fun y$383 () Bool)
(declare-fun y$385 () Bool)
(declare-fun y$386 () Bool)
(declare-fun y$389 () utt$3)
(declare-fun y$392 () Bool)
(declare-fun y$394 () Bool)
(declare-fun y$400 () Bool)
(declare-fun y$402 () Bool)
(declare-fun y$410 () Bool)
(declare-fun y$412 () Bool)
(declare-fun y$414 () Bool)
(declare-fun y$433 () Bool)
(declare-fun y$441 () Bool)
(declare-fun y$442 () Bool)
(declare-fun y$454 () Bool)
(declare-fun y$455 () Bool)
(declare-fun y$458 () Bool)
(declare-fun y$459 () Bool)
(declare-fun y$460 () Bool)
(declare-fun y$463 () Bool)
(declare-fun y$464 () Bool)
(declare-fun y$467 () utt$3)
(declare-fun y$469 () Bool)
(declare-fun y$470 () Bool)
(declare-fun y$475 () Bool)
(declare-fun y$476 () Bool)
(declare-fun y$48 () utt$4)
(declare-fun y$483 () Bool)
(declare-fun y$485 () Bool)
(declare-fun y$487 () Bool)
(declare-fun y$5 () Bool)
(declare-fun y$503 () Bool)
(declare-fun y$510 () Bool)
(declare-fun y$511 () Bool)
(declare-fun y$512 () Bool)
(declare-fun y$527 () Bool)
(declare-fun y$535 () Bool)
(declare-fun y$536 () Bool)
(declare-fun y$537 () Bool)
(declare-fun y$538 () Bool)
(declare-fun y$539 () Bool)
(declare-fun y$543 () Bool)
(declare-fun y$550 () Bool)
(declare-fun y$56 () utt$3)
(declare-fun y$561 () Bool)
(declare-fun y$562 () Bool)
(declare-fun y$563 () Bool)
(declare-fun y$564 () Bool)
(declare-fun y$565 () Bool)
(declare-fun y$57 () utt$3)
(declare-fun y$582 () Bool)
(declare-fun y$583 () Bool)
(declare-fun y$586 () Bool)
(declare-fun y$588 () Bool)
(declare-fun y$590 () Bool)
(declare-fun y$592 () Bool)
(declare-fun y$595 () Bool)
(declare-fun y$598 () Bool)
(declare-fun y$601 () Bool)
(declare-fun y$63 () utt$3)
(declare-fun y$64 () utt$3)
(declare-fun y$65 () utt$3)
(declare-fun y$66 () utt$3)
(declare-fun y$68 () Bool)
(declare-fun y$687 () Bool)
(declare-fun y$693 () Bool)
(declare-fun y$695 () Bool)
(declare-fun y$697 () Bool)
(declare-fun y$699 () Bool)
(declare-fun y$7 () Bool)
(declare-fun y$701 () Bool)
(declare-fun y$703 () Bool)
(declare-fun y$705 () Bool)
(declare-fun y$711 () Bool)
(declare-fun y$716 () Bool)
(declare-fun y$717 () Bool)
(declare-fun y$719 () Bool)
(declare-fun y$72 () Bool)
(declare-fun y$720 () Bool)
(declare-fun y$721 () Bool)
(declare-fun y$723 () Bool)
(declare-fun y$724 () Bool)
(declare-fun y$725 () Bool)
(declare-fun y$727 () Bool)
(declare-fun y$73 () Bool)
(declare-fun y$734 () Bool)
(declare-fun y$735 () Bool)
(declare-fun y$741 () Bool)
(declare-fun y$742 () Bool)
(declare-fun y$744 () Bool)
(declare-fun y$748 () Bool)
(declare-fun y$752 () Bool)
(declare-fun y$753 () Bool)
(declare-fun y$755 () Bool)
(declare-fun y$759 () Bool)
(declare-fun y$76 () Bool)
(declare-fun y$763 () Bool)
(declare-fun y$764 () Bool)
(declare-fun y$766 () Bool)
(declare-fun y$770 () Bool)
(declare-fun y$774 () Bool)
(declare-fun y$775 () Bool)
(declare-fun y$777 () Bool)
(declare-fun y$78 () Bool)
(declare-fun y$783 () Bool)
(declare-fun y$79 () Bool)
(declare-fun y$80 () Bool)
(declare-fun y$801 () Bool)
(declare-fun y$802 () Bool)
(declare-fun y$803 () Bool)
(declare-fun y$804 () Bool)
(declare-fun y$805 () Bool)
(declare-fun y$806 () Bool)
(declare-fun y$807 () Bool)
(declare-fun y$808 () Bool)
(declare-fun y$809 () Bool)
(declare-fun y$810 () Bool)
(declare-fun y$811 () Bool)
(declare-fun y$82 () Bool)
(declare-fun y$824 () Bool)
(declare-fun y$84 () Bool)
(declare-fun y$85 () Bool)
(declare-fun y$86 () Bool)
(declare-fun y$88 () Bool)
(declare-fun y$9 () Bool)
(declare-fun y$90 () Bool)
(declare-fun y$98 () Bool)
(declare-fun y$dataIn () utt$4)
(declare-fun y$dataIn$next () utt$4)
(declare-fun y$equal () Bool)
(declare-fun y$equal$next () Bool)
(declare-fun y$equal$next_op () Bool)
(declare-fun y$equal_op () Bool)
(declare-fun y$n0s1 () Bool)
(declare-fun y$n0s28 () utt$28)
(declare-fun y$n0s3 () utt$3)
(declare-fun y$n0s31 () utt$31)
(declare-fun y$n0s32 () utt$32)
(declare-fun y$n0s4 () utt$4)
(declare-fun y$n14s4 () utt$4)
(declare-fun y$n15s4 () utt$4)
(declare-fun y$n1s1 () Bool)
(declare-fun y$n1s3 () utt$3)
(declare-fun y$n1s32 () utt$32)
(declare-fun y$n2s3 () utt$3)
(declare-fun y$n3s3 () utt$3)
(declare-fun y$n4s3 () utt$3)
(declare-fun y$n4s32 () utt$32)
(declare-fun y$pop () Bool)
(declare-fun y$prop () Bool)
(declare-fun y$prop$next () Bool)
(declare-fun y$push () Bool)
(declare-fun y$push$next () Bool)
(declare-fun y$rb.dataOut () utt$4)
(declare-fun y$rb.dataOut$next () utt$4)
(declare-fun y$rb.dataOut$next_op () utt$4)
(declare-fun y$rb.dataOut_op () utt$4)
(declare-fun y$rb.empty () Bool)
(declare-fun y$rb.empty$next () Bool)
(declare-fun y$rb.empty$next_rhs () Bool)
(declare-fun y$rb.empty$next_rhs_op () Bool)
(declare-fun y$rb.full () Bool)
(declare-fun y$rb.full$next () Bool)
(declare-fun y$rb.full$next_op () Bool)
(declare-fun y$rb.full_op () Bool)
(declare-fun y$rb.head () utt$4)
(declare-fun y$rb.head$next () utt$4)
(declare-fun y$rb.head$next_rhs () utt$4)
(declare-fun y$rb.head$next_rhs_op () utt$4)
(declare-fun y$rb.mem_0_ () utt$4)
(declare-fun y$rb.mem_0_$next () utt$4)
(declare-fun y$rb.mem_0_$next_rhs () utt$4)
(declare-fun y$rb.mem_0_$next_rhs$next () utt$4)
(declare-fun y$rb.mem_0_$next_rhs$next_op () utt$4)
(declare-fun y$rb.mem_0_$next_rhs_op () utt$4)
(declare-fun y$rb.mem_1_ () utt$4)
(declare-fun y$rb.mem_1_$next () utt$4)
(declare-fun y$rb.mem_1_$next_rhs () utt$4)
(declare-fun y$rb.mem_1_$next_rhs_op () utt$4)
(declare-fun y$rb.mem_2_ () utt$4)
(declare-fun y$rb.mem_2_$next () utt$4)
(declare-fun y$rb.mem_2_$next_rhs () utt$4)
(declare-fun y$rb.mem_2_$next_rhs_op () utt$4)
(declare-fun y$rb.mem_3_ () utt$4)
(declare-fun y$rb.mem_3_$next () utt$4)
(declare-fun y$rb.mem_3_$next_rhs () utt$4)
(declare-fun y$rb.mem_3_$next_rhs_op () utt$4)
(declare-fun y$rb.mem_4_ () utt$4)
(declare-fun y$rb.mem_4_$next () utt$4)
(declare-fun y$rb.mem_4_$next_rhs () utt$4)
(declare-fun y$rb.mem_4_$next_rhs_op () utt$4)
(declare-fun y$rb.tail () utt$4)
(declare-fun y$rb.tail$next () utt$4)
(declare-fun y$rb.tail$next_rhs () utt$4)
(declare-fun y$rb.tail$next_rhs_op () utt$4)
(declare-fun y$s$0 () Bool)
(declare-fun y$s$0$next () Bool)
(declare-fun y$s$0$next_op () Bool)
(declare-fun y$s$0_op () Bool)
(declare-fun y$s$100 () Bool)
(declare-fun y$s$100_op () Bool)
(declare-fun y$s$101 () utt$4)
(declare-fun y$s$101_op () utt$4)
(declare-fun y$s$102 () utt$4)
(declare-fun y$s$102_op () utt$4)
(declare-fun y$s$103 () utt$32)
(declare-fun y$s$103_op () utt$32)
(declare-fun y$s$104 () Bool)
(declare-fun y$s$104_op () Bool)
(declare-fun y$s$105 () Bool)
(declare-fun y$s$105_op () Bool)
(declare-fun y$s$106 () Bool)
(declare-fun y$s$106$next () Bool)
(declare-fun y$s$106$next_op () Bool)
(declare-fun y$s$106_op () Bool)
(declare-fun y$s$107 () utt$4)
(declare-fun y$s$107$next () utt$4)
(declare-fun y$s$107$next_op () utt$4)
(declare-fun y$s$107_op () utt$4)
(declare-fun y$s$108 () utt$4)
(declare-fun y$s$108$next () utt$4)
(declare-fun y$s$108$next_op () utt$4)
(declare-fun y$s$108_op () utt$4)
(declare-fun y$s$109 () utt$4)
(declare-fun y$s$109$next () utt$4)
(declare-fun y$s$109$next_op () utt$4)
(declare-fun y$s$109_op () utt$4)
(declare-fun y$s$11 () Bool)
(declare-fun y$s$118 () Bool)
(declare-fun y$s$118_op () Bool)
(declare-fun y$s$119 () Bool)
(declare-fun y$s$119_op () Bool)
(declare-fun y$s$11_op () Bool)
(declare-fun y$s$12 () utt$4)
(declare-fun y$s$120 () utt$4)
(declare-fun y$s$120_op () utt$4)
(declare-fun y$s$121 () utt$4)
(declare-fun y$s$121_op () utt$4)
(declare-fun y$s$122 () utt$4)
(declare-fun y$s$122_op () utt$4)
(declare-fun y$s$123 () Bool)
(declare-fun y$s$123_op () Bool)
(declare-fun y$s$124 () utt$4)
(declare-fun y$s$124_op () utt$4)
(declare-fun y$s$125 () utt$32)
(declare-fun y$s$125_op () utt$32)
(declare-fun y$s$12_op () utt$4)
(declare-fun y$s$13 () Bool)
(declare-fun y$s$13_op () Bool)
(declare-fun y$s$14 () utt$32)
(declare-fun y$s$14_op () utt$32)
(declare-fun y$s$15 () utt$32)
(declare-fun y$s$15_op () utt$32)
(declare-fun y$s$16 () Bool)
(declare-fun y$s$16$next () Bool)
(declare-fun y$s$16$next_op () Bool)
(declare-fun y$s$16_op () Bool)
(declare-fun y$s$17 () Bool)
(declare-fun y$s$17_op () Bool)
(declare-fun y$s$18 () Bool)
(declare-fun y$s$18$next () Bool)
(declare-fun y$s$18$next_op () Bool)
(declare-fun y$s$18_op () Bool)
(declare-fun y$s$19 () Bool)
(declare-fun y$s$19$next () Bool)
(declare-fun y$s$19$next_op () Bool)
(declare-fun y$s$19_op () Bool)
(declare-fun y$s$20 () Bool)
(declare-fun y$s$20_op () Bool)
(declare-fun y$s$21 () Bool)
(declare-fun y$s$21_op () Bool)
(declare-fun y$s$22 () Bool)
(declare-fun y$s$22_op () Bool)
(declare-fun y$s$23 () Bool)
(declare-fun y$s$23_op () Bool)
(declare-fun y$s$24 () Bool)
(declare-fun y$s$24_op () Bool)
(declare-fun y$s$25 () Bool)
(declare-fun y$s$25_op () Bool)
(declare-fun y$s$29 () Bool)
(declare-fun y$s$29$next () Bool)
(declare-fun y$s$30 () Bool)
(declare-fun y$s$30$next () Bool)
(declare-fun y$s$31 () Bool)
(declare-fun y$s$31$next () Bool)
(declare-fun y$s$34 () utt$4)
(declare-fun y$s$34$next () utt$4)
(declare-fun y$s$34$next_op () utt$4)
(declare-fun y$s$34_op () utt$4)
(declare-fun y$s$35 () utt$4)
(declare-fun y$s$35$next () utt$4)
(declare-fun y$s$35$next_op () utt$4)
(declare-fun y$s$35_op () utt$4)
(declare-fun y$s$36 () utt$4)
(declare-fun y$s$36$next () utt$4)
(declare-fun y$s$36$next_op () utt$4)
(declare-fun y$s$36_op () utt$4)
(declare-fun y$s$37 () utt$4)
(declare-fun y$s$37$next () utt$4)
(declare-fun y$s$37$next_op () utt$4)
(declare-fun y$s$37_op () utt$4)
(declare-fun y$s$38 () utt$4)
(declare-fun y$s$38$next () utt$4)
(declare-fun y$s$38$next_op () utt$4)
(declare-fun y$s$38_op () utt$4)
(declare-fun y$s$39 () utt$4)
(declare-fun y$s$39$next () utt$4)
(declare-fun y$s$39$next_op () utt$4)
(declare-fun y$s$39_op () utt$4)
(declare-fun y$s$4 () Bool)
(declare-fun y$s$4$next () Bool)
(declare-fun y$s$4$next_op () Bool)
(declare-fun y$s$40 () utt$4)
(declare-fun y$s$40$next () utt$4)
(declare-fun y$s$41 () utt$4)
(declare-fun y$s$41$next () utt$4)
(declare-fun y$s$42 () utt$4)
(declare-fun y$s$42$next () utt$4)
(declare-fun y$s$43 () utt$3)
(declare-fun y$s$43$next () utt$3)
(declare-fun y$s$43$next_rhs () utt$3)
(declare-fun y$s$44 () Bool)
(declare-fun y$s$44$next () Bool)
(declare-fun y$s$44$next_op () Bool)
(declare-fun y$s$44_op () Bool)
(declare-fun y$s$45 () Bool)
(declare-fun y$s$45$next () Bool)
(declare-fun y$s$45$next_op () Bool)
(declare-fun y$s$45_op () Bool)
(declare-fun y$s$46 () Bool)
(declare-fun y$s$46$next () Bool)
(declare-fun y$s$46$next_op () Bool)
(declare-fun y$s$46_op () Bool)
(declare-fun y$s$47 () Bool)
(declare-fun y$s$47$next () Bool)
(declare-fun y$s$47$next_op () Bool)
(declare-fun y$s$47_op () Bool)
(declare-fun y$s$48 () Bool)
(declare-fun y$s$48_op () Bool)
(declare-fun y$s$49 () Bool)
(declare-fun y$s$49_op () Bool)
(declare-fun y$s$4_op () Bool)
(declare-fun y$s$5 () utt$4)
(declare-fun y$s$5$next () utt$4)
(declare-fun y$s$5$next_op () utt$4)
(declare-fun y$s$50 () Bool)
(declare-fun y$s$50_op () Bool)
(declare-fun y$s$51 () Bool)
(declare-fun y$s$51_op () Bool)
(declare-fun y$s$52 () Bool)
(declare-fun y$s$52_op () Bool)
(declare-fun y$s$53 () Bool)
(declare-fun y$s$53_op () Bool)
(declare-fun y$s$54 () Bool)
(declare-fun y$s$54_op () Bool)
(declare-fun y$s$55 () Bool)
(declare-fun y$s$55_op () Bool)
(declare-fun y$s$56 () Bool)
(declare-fun y$s$56_op () Bool)
(declare-fun y$s$57 () Bool)
(declare-fun y$s$57_op () Bool)
(declare-fun y$s$58 () Bool)
(declare-fun y$s$58_op () Bool)
(declare-fun y$s$59 () Bool)
(declare-fun y$s$59_op () Bool)
(declare-fun y$s$5_op () utt$4)
(declare-fun y$s$6 () utt$4)
(declare-fun y$s$6$next () utt$4)
(declare-fun y$s$6$next_op () utt$4)
(declare-fun y$s$60 () Bool)
(declare-fun y$s$60_op () Bool)
(declare-fun y$s$61 () Bool)
(declare-fun y$s$61_op () Bool)
(declare-fun y$s$62 () Bool)
(declare-fun y$s$62_op () Bool)
(declare-fun y$s$63 () Bool)
(declare-fun y$s$63_op () Bool)
(declare-fun y$s$64 () Bool)
(declare-fun y$s$64$next () Bool)
(declare-fun y$s$64$next_op () Bool)
(declare-fun y$s$64_op () Bool)
(declare-fun y$s$65 () Bool)
(declare-fun y$s$65$next () Bool)
(declare-fun y$s$65$next_op () Bool)
(declare-fun y$s$65_op () Bool)
(declare-fun y$s$66 () Bool)
(declare-fun y$s$66$next () Bool)
(declare-fun y$s$66$next_op () Bool)
(declare-fun y$s$66_op () Bool)
(declare-fun y$s$67 () Bool)
(declare-fun y$s$67$next () Bool)
(declare-fun y$s$67$next_op () Bool)
(declare-fun y$s$67_op () Bool)
(declare-fun y$s$68 () Bool)
(declare-fun y$s$68_op () Bool)
(declare-fun y$s$69 () Bool)
(declare-fun y$s$69_op () Bool)
(declare-fun y$s$6_op () utt$4)
(declare-fun y$s$7 () utt$4)
(declare-fun y$s$7$next () utt$4)
(declare-fun y$s$7$next_op () utt$4)
(declare-fun y$s$70 () Bool)
(declare-fun y$s$70_op () Bool)
(declare-fun y$s$71 () Bool)
(declare-fun y$s$71_op () Bool)
(declare-fun y$s$72 () Bool)
(declare-fun y$s$72_op () Bool)
(declare-fun y$s$73 () Bool)
(declare-fun y$s$73_op () Bool)
(declare-fun y$s$74 () Bool)
(declare-fun y$s$74_op () Bool)
(declare-fun y$s$75 () Bool)
(declare-fun y$s$75_op () Bool)
(declare-fun y$s$76 () Bool)
(declare-fun y$s$76_op () Bool)
(declare-fun y$s$77 () Bool)
(declare-fun y$s$77_op () Bool)
(declare-fun y$s$78 () Bool)
(declare-fun y$s$78_op () Bool)
(declare-fun y$s$79 () Bool)
(declare-fun y$s$79_op () Bool)
(declare-fun y$s$7_op () utt$4)
(declare-fun y$s$80 () Bool)
(declare-fun y$s$80_op () Bool)
(declare-fun y$s$81 () Bool)
(declare-fun y$s$81_op () Bool)
(declare-fun y$s$82 () Bool)
(declare-fun y$s$82_op () Bool)
(declare-fun y$s$83 () Bool)
(declare-fun y$s$83_op () Bool)
(declare-fun y$s$87 () Bool)
(declare-fun y$s$87_op () Bool)
(declare-fun y$s$88 () Bool)
(declare-fun y$s$88_op () Bool)
(declare-fun y$s$89 () Bool)
(declare-fun y$s$89_op () Bool)
(declare-fun y$s$90 () utt$4)
(declare-fun y$s$90_op () utt$4)
(declare-fun y$s$98 () Bool)
(declare-fun y$s$98_op () Bool)
(declare-fun y$s$99 () utt$4)
(declare-fun y$s$99_op () utt$4)
(declare-fun y$sr.dataOut () utt$4)
(declare-fun y$sr.dataOut$next () utt$4)
(declare-fun y$sr.dataOut$next_op () utt$4)
(declare-fun y$sr.dataOut_op () utt$4)
(declare-fun y$sr.empty () Bool)
(declare-fun y$sr.empty$next () Bool)
(declare-fun y$sr.empty$next_rhs () Bool)
(declare-fun y$sr.empty$next_rhs_op () Bool)
(declare-fun y$sr.mem_0_ () utt$4)
(declare-fun y$sr.mem_0_$next () utt$4)
(declare-fun y$sr.mem_0_$next_rhs () utt$4)
(declare-fun y$sr.mem_0_$next_rhs_op () utt$4)
(declare-fun y$sr.mem_1_ () utt$4)
(declare-fun y$sr.mem_1_$next () utt$4)
(declare-fun y$sr.mem_1_$next_rhs () utt$4)
(declare-fun y$sr.mem_1_$next_rhs_op () utt$4)
(declare-fun y$sr.mem_2_ () utt$4)
(declare-fun y$sr.mem_2_$next () utt$4)
(declare-fun y$sr.mem_2_$next_rhs () utt$4)
(declare-fun y$sr.mem_2_$next_rhs_op () utt$4)
(declare-fun y$sr.mem_3_ () utt$4)
(declare-fun y$sr.mem_3_$next () utt$4)
(declare-fun y$sr.mem_3_$next_rhs () utt$4)
(declare-fun y$sr.mem_3_$next_rhs_op () utt$4)
(declare-fun y$sr.mem_4_ () utt$4)
(declare-fun y$sr.mem_4_$next () utt$4)
(declare-fun y$sr.mem_4_$next_rhs () utt$4)
(declare-fun y$sr.mem_4_$next_rhs_op () utt$4)
(declare-fun y$sr.tail () utt$4)
(declare-fun y$sr.tail$next () utt$4)
(declare-fun y$sr.tail$next_rhs () utt$4)
(declare-fun y$sr.tail$next_rhs_op () utt$4)
(declare-fun y$w$1 () utt$32)
(declare-fun y$w$1$next () utt$32)
(declare-fun y$w$1$next_op () utt$32)
(declare-fun y$w$10 () Bool)
(declare-fun y$w$10$next () Bool)
(declare-fun y$w$11 () Bool)
(declare-fun y$w$11$next () Bool)
(declare-fun y$w$17 () utt$4)
(declare-fun y$w$18 () utt$4)
(declare-fun y$w$19 () utt$4)
(declare-fun y$w$1_op () utt$32)
(declare-fun y$w$2 () utt$4)
(declare-fun y$w$20 () utt$32)
(declare-fun y$w$20$next () utt$32)
(declare-fun y$w$20$next_op () utt$32)
(declare-fun y$w$20_op () utt$32)
(declare-fun y$w$21 () utt$3)
(declare-fun y$w$21$next () utt$3)
(declare-fun y$w$22 () Bool)
(declare-fun y$w$22$next () Bool)
(declare-fun y$w$23 () Bool)
(declare-fun y$w$23$next () Bool)
(declare-fun y$w$24 () Bool)
(declare-fun y$w$24$next () Bool)
(declare-fun y$w$25 () utt$32)
(declare-fun y$w$25_op () utt$32)
(declare-fun y$w$26 () Bool)
(declare-fun y$w$26$next () Bool)
(declare-fun y$w$27 () Bool)
(declare-fun y$w$27$next () Bool)
(declare-fun y$w$28 () Bool)
(declare-fun y$w$28$next () Bool)
(declare-fun y$w$29 () Bool)
(declare-fun y$w$29$next () Bool)
(declare-fun y$w$30 () Bool)
(declare-fun y$w$31 () Bool)
(declare-fun y$w$32 () Bool)
(declare-fun y$w$33 () Bool)
(declare-fun y$w$34 () Bool)
(declare-fun y$w$35 () Bool)
(declare-fun y$w$36 () Bool)
(declare-fun y$w$37 () Bool)
(declare-fun y$w$38 () Bool)
(declare-fun y$w$39 () Bool)
(declare-fun y$w$4 () Bool)
(declare-fun y$w$4$next () Bool)
(declare-fun y$w$40 () Bool)
(declare-fun y$w$41 () Bool)
(declare-fun y$w$42 () Bool)
(declare-fun y$w$43 () Bool)
(declare-fun y$w$44 () Bool)
(declare-fun y$w$45 () Bool)
(declare-fun y$w$46 () utt$32)
(declare-fun y$w$46_op () utt$32)
(declare-fun y$w$5 () Bool)
(declare-fun y$w$5$next () Bool)
(declare-fun y$w$6 () Bool)
(declare-fun y$w$6$next () Bool)
(declare-fun y$w$7 () Bool)
(declare-fun y$w$7$next () Bool)
(declare-fun y$w$8 () Bool)
(declare-fun y$w$8$next () Bool)
(declare-fun y$w$9 () Bool)
(declare-fun y$w$9$next () Bool)
(assert (distinct y$n0s3 y$n3s3 y$n4s3 y$n2s3 y$n1s3))
(assert (distinct y$n0s4 y$n15s4 y$n14s4))
(assert (distinct y$n1s32 y$n4s32 y$n0s32))
(assert (= y$3 (= y$n0s4 y$rb.head)))
(assert (= y$5 (= y$n0s4 y$rb.mem_0_)))
(assert (= y$7 (= y$n0s4 y$rb.mem_1_)))
(assert (= y$9 (= y$n0s4 y$rb.mem_2_)))
(assert (= y$11 (= y$n0s4 y$rb.mem_3_)))
(assert (= y$13 (= y$n0s4 y$rb.mem_4_)))
(assert (= y$15 (= y$n0s4 y$rb.tail)))
(assert (= y$18 (= y$n0s4 y$sr.mem_0_)))
(assert (= y$20 (= y$n0s4 y$sr.mem_1_)))
(assert (= y$22 (= y$n0s4 y$sr.mem_2_)))
(assert (= y$24 (= y$n0s4 y$sr.mem_3_)))
(assert (= y$26 (= y$n0s4 y$sr.mem_4_)))
(assert (= y$28 (= y$n0s4 y$sr.tail)))
(assert (= y$32 (= y$rb.head y$rb.tail)))
(assert (= y$rb.empty (not y$33)))
(assert (= y$rb.full_op (and y$32 y$33)))
(assert (= y$rb.full_op (not y$36)))
(assert (= y$s$16_op (and y$push y$36)))
(assert (= y$s$17_op (and y$33 y$pop)))
(assert (= y$w$25_op (Concat_32_4_28 y$rb.tail y$n0s28)))
(assert (= y$s$15_op (Add_32_32_32 y$w$25_op y$n1s32)))
(assert (= y$48 (Extract_4_3_0_32 y$s$15_op)))
(assert (= y$s$90_op (ite y$s$17_op y$48 y$rb.tail)))
(assert (= y$s$12_op (ite y$s$16_op y$n0s4 y$s$90_op)))
(assert (= y$rb.tail$next_rhs_op (ite y$s$16_op y$rb.tail y$s$12_op)))
(assert (= y$57 (Extract_3_2_0_4 y$rb.tail)))
(assert (= y$63 (Extract_3_2_0_32 y$s$15_op)))
(assert (= y$64 (ite y$s$17_op y$63 y$57)))
(assert (= y$65 (ite y$s$16_op y$n0s3 y$64)))
(assert (= y$66 (ite y$s$16_op y$57 y$65)))
(assert (= y$56 (Extract_3_2_0_4 y$rb.tail$next_rhs_op)))
(assert (= y$66 y$56))
(assert (= y$68 (= y$s$43$next y$56)))
(assert (= y$s$5_op (ite y$s$16_op y$rb.head y$n0s4)))
(assert (= y$73 (Extract_1_0_0_4 y$rb.head)))
(assert (= y$76 (and y$s$16_op y$73)))
(assert (= y$72 (Extract_1_0_0_4 y$s$5_op)))
(assert (= y$76 y$72))
(assert (= y$72 (not y$78)))
(assert (= y$80 (Extract_1_1_1_4 y$rb.head)))
(assert (= y$82 (and y$s$16_op y$80)))
(assert (= y$79 (Extract_1_1_1_4 y$s$5_op)))
(assert (= y$82 y$79))
(assert (= y$79 (not y$84)))
(assert (= y$86 (Extract_1_2_2_4 y$rb.head)))
(assert (= y$88 (and y$s$16_op y$86)))
(assert (= y$85 (Extract_1_2_2_4 y$s$5_op)))
(assert (= y$88 y$85))
(assert (= y$85 (not y$90)))
(assert (= y$s$18_op (and y$84 y$90)))
(assert (= y$s$19_op (and y$78 y$s$18_op)))
(assert (= y$s$7_op (ite y$s$16_op y$n15s4 y$n0s4)))
(assert (= y$s$16_op y$101))
(assert (= y$98 (Extract_1_0_0_4 y$s$7_op)))
(assert (= y$101 y$98))
(assert (= y$s$44_op (and y$s$19_op y$98)))
(assert (= y$s$6_op (ite y$s$16_op y$dataIn y$n0s4)))
(assert (= y$109 (Extract_1_0_0_4 y$dataIn)))
(assert (= y$110 (and y$s$16_op y$109)))
(assert (= y$108 (Extract_1_0_0_4 y$s$6_op)))
(assert (= y$110 y$108))
(assert (= y$112 (Extract_1_0_0_4 y$rb.mem_0_)))
(assert (= y$s$64_op (ite y$s$44_op y$108 y$112)))
(assert (= y$116 (Extract_1_1_1_4 y$s$7_op)))
(assert (= y$101 y$116))
(assert (= y$s$45_op (and y$s$19_op y$116)))
(assert (= y$122 (Extract_1_1_1_4 y$dataIn)))
(assert (= y$123 (and y$s$16_op y$122)))
(assert (= y$121 (Extract_1_1_1_4 y$s$6_op)))
(assert (= y$123 y$121))
(assert (= y$125 (Extract_1_1_1_4 y$rb.mem_0_)))
(assert (= y$s$65_op (ite y$s$45_op y$121 y$125)))
(assert (= y$129 (Extract_1_2_2_4 y$s$7_op)))
(assert (= y$101 y$129))
(assert (= y$s$46_op (and y$s$19_op y$129)))
(assert (= y$135 (Extract_1_2_2_4 y$dataIn)))
(assert (= y$136 (and y$s$16_op y$135)))
(assert (= y$134 (Extract_1_2_2_4 y$s$6_op)))
(assert (= y$136 y$134))
(assert (= y$138 (Extract_1_2_2_4 y$rb.mem_0_)))
(assert (= y$s$66_op (ite y$s$46_op y$134 y$138)))
(assert (= y$142 (Extract_1_3_3_4 y$s$7_op)))
(assert (= y$101 y$142))
(assert (= y$s$47_op (and y$s$19_op y$142)))
(assert (= y$149 (Extract_1_3_3_4 y$dataIn)))
(assert (= y$150 (and y$s$16_op y$149)))
(assert (= y$148 (Extract_1_3_3_4 y$s$6_op)))
(assert (= y$150 y$148))
(assert (= y$152 (Extract_1_3_3_4 y$rb.mem_0_)))
(assert (= y$s$67_op (ite y$s$47_op y$148 y$152)))
(assert (= y$rb.mem_0_$next_rhs_op (Concat_4_1_1_1_1 y$s$64_op y$s$65_op y$s$66_op y$s$67_op)))
(assert (= y$158 (= y$rb.mem_0_$next y$rb.mem_0_$next_rhs_op)))
(assert (= y$s$20_op (and y$72 y$s$18_op)))
(assert (= y$s$48_op (and y$98 y$s$20_op)))
(assert (= y$164 (Extract_1_0_0_4 y$rb.mem_1_)))
(assert (= y$s$68_op (ite y$s$48_op y$108 y$164)))
(assert (= y$s$49_op (and y$116 y$s$20_op)))
(assert (= y$170 (Extract_1_1_1_4 y$rb.mem_1_)))
(assert (= y$s$69_op (ite y$s$49_op y$121 y$170)))
(assert (= y$s$50_op (and y$129 y$s$20_op)))
(assert (= y$176 (Extract_1_2_2_4 y$rb.mem_1_)))
(assert (= y$s$70_op (ite y$s$50_op y$134 y$176)))
(assert (= y$s$51_op (and y$142 y$s$20_op)))
(assert (= y$182 (Extract_1_3_3_4 y$rb.mem_1_)))
(assert (= y$s$71_op (ite y$s$51_op y$148 y$182)))
(assert (= y$rb.mem_1_$next_rhs_op (Concat_4_1_1_1_1 y$s$68_op y$s$69_op y$s$70_op y$s$71_op)))
(assert (= y$188 (= y$rb.mem_1_$next y$rb.mem_1_$next_rhs_op)))
(assert (= y$s$21_op (and y$79 y$90)))
(assert (= y$s$22_op (and y$78 y$s$21_op)))
(assert (= y$s$52_op (and y$98 y$s$22_op)))
(assert (= y$196 (Extract_1_0_0_4 y$rb.mem_2_)))
(assert (= y$s$72_op (ite y$s$52_op y$108 y$196)))
(assert (= y$s$53_op (and y$116 y$s$22_op)))
(assert (= y$202 (Extract_1_1_1_4 y$rb.mem_2_)))
(assert (= y$s$73_op (ite y$s$53_op y$121 y$202)))
(assert (= y$s$54_op (and y$129 y$s$22_op)))
(assert (= y$208 (Extract_1_2_2_4 y$rb.mem_2_)))
(assert (= y$s$74_op (ite y$s$54_op y$134 y$208)))
(assert (= y$s$55_op (and y$142 y$s$22_op)))
(assert (= y$214 (Extract_1_3_3_4 y$rb.mem_2_)))
(assert (= y$s$75_op (ite y$s$55_op y$148 y$214)))
(assert (= y$rb.mem_2_$next_rhs_op (Concat_4_1_1_1_1 y$s$72_op y$s$73_op y$s$74_op y$s$75_op)))
(assert (= y$220 (= y$rb.mem_2_$next y$rb.mem_2_$next_rhs_op)))
(assert (= y$s$23_op (and y$72 y$s$21_op)))
(assert (= y$s$56_op (and y$98 y$s$23_op)))
(assert (= y$226 (Extract_1_0_0_4 y$rb.mem_3_)))
(assert (= y$s$76_op (ite y$s$56_op y$108 y$226)))
(assert (= y$s$57_op (and y$116 y$s$23_op)))
(assert (= y$232 (Extract_1_1_1_4 y$rb.mem_3_)))
(assert (= y$s$77_op (ite y$s$57_op y$121 y$232)))
(assert (= y$s$58_op (and y$129 y$s$23_op)))
(assert (= y$238 (Extract_1_2_2_4 y$rb.mem_3_)))
(assert (= y$s$78_op (ite y$s$58_op y$134 y$238)))
(assert (= y$s$59_op (and y$142 y$s$23_op)))
(assert (= y$244 (Extract_1_3_3_4 y$rb.mem_3_)))
(assert (= y$s$79_op (ite y$s$59_op y$148 y$244)))
(assert (= y$rb.mem_3_$next_rhs_op (Concat_4_1_1_1_1 y$s$76_op y$s$77_op y$s$78_op y$s$79_op)))
(assert (= y$250 (= y$rb.mem_3_$next y$rb.mem_3_$next_rhs_op)))
(assert (= y$s$24_op (and y$84 y$85)))
(assert (= y$s$25_op (and y$78 y$s$24_op)))
(assert (= y$s$60_op (and y$98 y$s$25_op)))
(assert (= y$258 (Extract_1_0_0_4 y$rb.mem_4_)))
(assert (= y$s$80_op (ite y$s$60_op y$108 y$258)))
(assert (= y$s$61_op (and y$116 y$s$25_op)))
(assert (= y$264 (Extract_1_1_1_4 y$rb.mem_4_)))
(assert (= y$s$81_op (ite y$s$61_op y$121 y$264)))
(assert (= y$s$62_op (and y$129 y$s$25_op)))
(assert (= y$270 (Extract_1_2_2_4 y$rb.mem_4_)))
(assert (= y$s$82_op (ite y$s$62_op y$134 y$270)))
(assert (= y$s$63_op (and y$142 y$s$25_op)))
(assert (= y$276 (Extract_1_3_3_4 y$rb.mem_4_)))
(assert (= y$s$83_op (ite y$s$63_op y$148 y$276)))
(assert (= y$rb.mem_4_$next_rhs_op (Concat_4_1_1_1_1 y$s$80_op y$s$81_op y$s$82_op y$s$83_op)))
(assert (= y$282 (= y$rb.mem_4_$next y$rb.mem_4_$next_rhs_op)))
(assert (= y$284 (= y$rb.head y$48)))
(assert (= y$s$87_op (or y$rb.empty y$284)))
(assert (= y$s$88_op (and y$s$17_op y$s$87_op)))
(assert (= y$s$13_op (and (not y$s$16_op) y$s$88_op)))
(assert (= y$s$89_op (ite y$s$17_op y$s$13_op y$rb.empty)))
(assert (= y$s$11_op (and (not y$s$16_op) y$s$89_op)))
(assert (= y$rb.empty$next_rhs_op (and (not y$s$16_op) y$s$11_op)))
(assert (= y$297 (= y$rb.empty$next y$rb.empty$next_rhs_op)))
(assert (= y$299 (= y$rb.tail$next y$rb.tail$next_rhs_op)))
(assert (= y$w$46_op (Concat_32_4_28 y$rb.head y$n0s28)))
(assert (= y$s$14_op (Add_32_32_32 y$w$46_op y$n1s32)))
(assert (= y$305 (Extract_4_3_0_32 y$s$14_op)))
(assert (= y$rb.head$next_rhs_op (ite y$s$16_op y$305 y$rb.head)))
(assert (= y$309 (= y$rb.head$next y$rb.head$next_rhs_op)))
(assert (= y$w$20_op (Concat_32_4_28 y$sr.tail y$n0s28)))
(assert (= (not (= y$n4s32 y$w$20_op)) y$316))
(assert (= y$s$104_op (and y$316 y$push)))
(assert (= y$sr.empty (not y$319)))
(assert (= y$s$105_op (and y$pop y$319)))
(assert (= y$323 (= y$n0s32 y$w$20_op)))
(assert (= y$s$118_op (or y$sr.empty y$323)))
(assert (= y$s$119_op (and y$s$105_op y$s$118_op)))
(assert (= y$s$100_op (and (not y$s$104_op) y$s$119_op)))
(assert (= y$s$123_op (ite y$s$105_op y$s$100_op y$sr.empty)))
(assert (= y$s$98_op (and (not y$s$104_op) y$s$123_op)))
(assert (= y$sr.empty$next_rhs_op (and (not y$s$104_op) y$s$98_op)))
(assert (= y$336 (= y$sr.empty$next y$sr.empty$next_rhs_op)))
(assert (= y$s$103_op (Add_32_32_32 y$w$20_op y$n1s32)))
(assert (= y$340 (Extract_4_3_0_32 y$s$103_op)))
(assert (= y$s$124_op (ite y$319 y$340 y$sr.tail)))
(assert (= y$s$99_op (ite y$s$104_op y$s$124_op y$n0s4)))
(assert (= y$s$125_op (Sub_32_32_32 y$w$20_op y$n1s32)))
(assert (= y$348 (Extract_4_3_0_32 y$s$125_op)))
(assert (= y$s$120_op (ite y$323 y$sr.tail y$348)))
(assert (= y$s$121_op (ite y$s$105_op y$s$120_op y$n0s4)))
(assert (= y$s$102_op (ite y$s$104_op y$n0s4 y$s$121_op)))
(assert (= y$s$122_op (ite y$s$105_op y$s$102_op y$sr.tail)))
(assert (= y$s$101_op (ite y$s$104_op y$n0s4 y$s$122_op)))
(assert (= y$sr.tail$next_rhs_op (ite y$s$104_op y$s$99_op y$s$101_op)))
(assert (= y$362 (= y$sr.tail$next y$sr.tail$next_rhs_op)))
(assert (= y$sr.mem_0_$next_rhs_op (ite y$s$104_op y$dataIn y$sr.mem_0_)))
(assert (= y$366 (= y$sr.mem_0_$next y$sr.mem_0_$next_rhs_op)))
(assert (= y$sr.mem_1_$next_rhs_op (ite y$s$104_op y$sr.mem_0_ y$sr.mem_1_)))
(assert (= y$370 (= y$sr.mem_1_$next y$sr.mem_1_$next_rhs_op)))
(assert (= y$sr.mem_2_$next_rhs_op (ite y$s$104_op y$sr.mem_1_ y$sr.mem_2_)))
(assert (= y$374 (= y$sr.mem_2_$next y$sr.mem_2_$next_rhs_op)))
(assert (= y$sr.mem_3_$next_rhs_op (ite y$s$104_op y$sr.mem_2_ y$sr.mem_3_)))
(assert (= y$378 (= y$sr.mem_3_$next y$sr.mem_3_$next_rhs_op)))
(assert (= y$sr.mem_4_$next_rhs_op (ite y$s$104_op y$sr.mem_3_ y$sr.mem_4_)))
(assert (= y$382 (= y$sr.mem_4_$next y$sr.mem_4_$next_rhs_op)))
(assert (= y$383 (and y$68 y$158 y$188 y$220 y$250 y$282 y$297 y$299 y$309 y$336 y$362 y$366 y$370 y$374 y$378 y$382)))
(assert (= y$w$20$next_op (Concat_32_4_28 y$sr.tail$next y$n0s28)))
(assert (= y$458 (= y$n4s32 y$w$20$next_op)))
(assert (= y$459 (= y$rb.tail$next y$rb.head$next)))
(assert (= y$rb.empty$next (not y$460)))
(assert (= y$rb.full$next_op (and y$459 y$460)))
(assert (= y$463 (= y$458 y$rb.full$next_op)))
(assert (= y$464 (= y$rb.empty$next y$sr.empty$next)))
(assert (= y$s$0$next_op (and y$463 y$464)))
(assert (= y$467 (Extract_3_2_0_4 y$sr.tail$next)))
(assert (= y$469 (= y$n3s3 y$467)))
(assert (= y$470 (= y$n4s3 y$467)))
(assert (= y$s$106$next_op (or y$469 y$470)))
(assert (= y$s$107$next_op (ite y$470 y$sr.mem_4_$next y$sr.mem_3_$next)))
(assert (= y$475 (= y$n2s3 y$467)))
(assert (= y$476 (= y$n1s3 y$467)))
(assert (= y$s$108$next_op (ite y$476 y$sr.mem_1_$next y$sr.mem_0_$next)))
(assert (= y$s$109$next_op (ite y$475 y$sr.mem_2_$next y$s$108$next_op)))
(assert (= y$sr.dataOut$next_op (ite y$s$106$next_op y$s$107$next_op y$s$109$next_op)))
(assert (= y$483 (Extract_1_2_2_3 y$s$43$next)))
(assert (= y$485 (Extract_1_1_1_3 y$s$43$next)))
(assert (= y$487 (Extract_1_0_0_3 y$s$43$next)))
(assert (= y$s$39$next_op (ite y$487 y$s$42$next y$s$41$next)))
(assert (= y$s$38$next_op (ite y$487 y$s$40$next y$rb.mem_4_$next)))
(assert (= y$s$35$next_op (ite y$485 y$s$39$next_op y$s$38$next_op)))
(assert (= y$s$37$next_op (ite y$487 y$rb.mem_3_$next y$rb.mem_2_$next)))
(assert (= y$s$36$next_op (ite y$487 y$rb.mem_1_$next y$rb.mem_0_$next)))
(assert (= y$s$34$next_op (ite y$485 y$s$37$next_op y$s$36$next_op)))
(assert (= y$rb.dataOut$next_op (ite y$483 y$s$35$next_op y$s$34$next_op)))
(assert (= y$503 (= y$sr.dataOut$next_op y$rb.dataOut$next_op)))
(assert (= y$s$4$next_op (or y$sr.empty$next y$503)))
(assert (= y$equal$next_op (and y$s$0$next_op y$s$4$next_op)))
(assert (= y$w$1$next_op (Concat_32_1_31 y$equal$next_op y$n0s31)))
(assert (= (= y$n1s32 y$w$1$next_op) y$510))
(assert (= y$511 (= y$prop$next y$510)))
(assert (= y$prop$next (not y$455)))
(assert (= y$536 (= y$n0s4 y$sr.tail$next)))
(assert (= y$537 (and y$536 y$458)))
(assert (= y$537 (not y$539)))
(assert (= y$314 (= y$n4s32 y$w$20_op)))
(assert (= y$535 (and y$28 y$314)))
(assert (= y$535 (not y$538)))
(assert (= (not (= y$n4s32 y$w$20$next_op)) y$543))
(assert (= y$562 (not (= y$n1s32 y$w$1$next_op))))
(assert (= y$563 (and y$rb.empty$next y$sr.empty$next y$543 y$562)))
(assert (= y$563 (not y$565)))
(assert (= y$385 (= y$314 y$rb.full_op)))
(assert (= y$386 (= y$rb.empty y$sr.empty)))
(assert (= y$s$0_op (and y$385 y$386)))
(assert (= y$389 (Extract_3_2_0_4 y$sr.tail)))
(assert (= y$392 (= y$n3s3 y$389)))
(assert (= y$394 (= y$n4s3 y$389)))
(assert (= y$s$106_op (or y$392 y$394)))
(assert (= y$s$107_op (ite y$394 y$sr.mem_4_ y$sr.mem_3_)))
(assert (= y$400 (= y$n2s3 y$389)))
(assert (= y$402 (= y$n1s3 y$389)))
(assert (= y$s$108_op (ite y$402 y$sr.mem_1_ y$sr.mem_0_)))
(assert (= y$s$109_op (ite y$400 y$sr.mem_2_ y$s$108_op)))
(assert (= y$sr.dataOut_op (ite y$s$106_op y$s$107_op y$s$109_op)))
(assert (= y$410 (Extract_1_2_2_3 y$s$43)))
(assert (= y$412 (Extract_1_1_1_3 y$s$43)))
(assert (= y$414 (Extract_1_0_0_3 y$s$43)))
(assert (= y$s$39_op (ite y$414 y$s$42 y$s$41)))
(assert (= y$s$38_op (ite y$414 y$s$40 y$rb.mem_4_)))
(assert (= y$s$35_op (ite y$412 y$s$39_op y$s$38_op)))
(assert (= y$s$37_op (ite y$414 y$rb.mem_3_ y$rb.mem_2_)))
(assert (= y$s$36_op (ite y$414 y$rb.mem_1_ y$rb.mem_0_)))
(assert (= y$s$34_op (ite y$412 y$s$37_op y$s$36_op)))
(assert (= y$rb.dataOut_op (ite y$410 y$s$35_op y$s$34_op)))
(assert (= y$433 (= y$sr.dataOut_op y$rb.dataOut_op)))
(assert (= y$s$4_op (or y$sr.empty y$433)))
(assert (= y$equal_op (and y$s$0_op y$s$4_op)))
(assert (= y$w$1_op (Concat_32_1_31 y$equal_op y$n0s31)))
(assert (= (not (= y$n1s32 y$w$1_op)) y$527))
(assert (= y$561 (and y$rb.empty y$sr.empty y$316 y$527)))
(assert (= y$561 (not y$564)))
(assert (= y$rb.full$next_op (not y$711)))
(assert (= y$s$16$next_op (and y$push$next y$711)))
(assert (= y$s$5$next_op (ite y$s$16$next_op y$rb.head$next y$n0s4)))
(assert (= y$693 (Extract_1_0_0_4 y$rb.head$next)))
(assert (= y$717 (and y$s$16$next_op y$693)))
(assert (= y$716 (Extract_1_0_0_4 y$s$5$next_op)))
(assert (= y$717 y$716))
(assert (= y$716 (not y$719)))
(assert (= y$695 (Extract_1_1_1_4 y$rb.head$next)))
(assert (= y$721 (and y$s$16$next_op y$695)))
(assert (= y$720 (Extract_1_1_1_4 y$s$5$next_op)))
(assert (= y$721 y$720))
(assert (= y$720 (not y$723)))
(assert (= y$697 (Extract_1_2_2_4 y$rb.head$next)))
(assert (= y$725 (and y$s$16$next_op y$697)))
(assert (= y$724 (Extract_1_2_2_4 y$s$5$next_op)))
(assert (= y$725 y$724))
(assert (= y$724 (not y$727)))
(assert (= y$s$18$next_op (and y$723 y$727)))
(assert (= y$s$19$next_op (and y$719 y$s$18$next_op)))
(assert (= y$s$7$next_op (ite y$s$16$next_op y$n15s4 y$n0s4)))
(assert (= y$s$16$next_op y$735))
(assert (= y$734 (Extract_1_0_0_4 y$s$7$next_op)))
(assert (= y$735 y$734))
(assert (= y$s$44$next_op (and y$s$19$next_op y$734)))
(assert (= y$s$6$next_op (ite y$s$16$next_op y$dataIn$next y$n0s4)))
(assert (= y$699 (Extract_1_0_0_4 y$dataIn$next)))
(assert (= y$742 (and y$s$16$next_op y$699)))
(assert (= y$741 (Extract_1_0_0_4 y$s$6$next_op)))
(assert (= y$742 y$741))
(assert (= y$744 (Extract_1_0_0_4 y$rb.mem_0_$next)))
(assert (= y$s$64$next_op (ite y$s$44$next_op y$741 y$744)))
(assert (= y$748 (Extract_1_1_1_4 y$s$7$next_op)))
(assert (= y$735 y$748))
(assert (= y$s$45$next_op (and y$s$19$next_op y$748)))
(assert (= y$701 (Extract_1_1_1_4 y$dataIn$next)))
(assert (= y$753 (and y$s$16$next_op y$701)))
(assert (= y$752 (Extract_1_1_1_4 y$s$6$next_op)))
(assert (= y$753 y$752))
(assert (= y$755 (Extract_1_1_1_4 y$rb.mem_0_$next)))
(assert (= y$s$65$next_op (ite y$s$45$next_op y$752 y$755)))
(assert (= y$759 (Extract_1_2_2_4 y$s$7$next_op)))
(assert (= y$735 y$759))
(assert (= y$s$46$next_op (and y$s$19$next_op y$759)))
(assert (= y$703 (Extract_1_2_2_4 y$dataIn$next)))
(assert (= y$764 (and y$s$16$next_op y$703)))
(assert (= y$763 (Extract_1_2_2_4 y$s$6$next_op)))
(assert (= y$764 y$763))
(assert (= y$766 (Extract_1_2_2_4 y$rb.mem_0_$next)))
(assert (= y$s$66$next_op (ite y$s$46$next_op y$763 y$766)))
(assert (= y$770 (Extract_1_3_3_4 y$s$7$next_op)))
(assert (= y$735 y$770))
(assert (= y$s$47$next_op (and y$s$19$next_op y$770)))
(assert (= y$705 (Extract_1_3_3_4 y$dataIn$next)))
(assert (= y$775 (and y$s$16$next_op y$705)))
(assert (= y$774 (Extract_1_3_3_4 y$s$6$next_op)))
(assert (= y$775 y$774))
(assert (= y$777 (Extract_1_3_3_4 y$rb.mem_0_$next)))
(assert (= y$s$67$next_op (ite y$s$47$next_op y$774 y$777)))
(assert (= y$rb.mem_0_$next_rhs$next_op (Concat_4_1_1_1_1 y$s$64$next_op y$s$65$next_op y$s$66$next_op y$s$67$next_op)))
(assert (= y$783 (not (= y$sr.tail$next y$rb.mem_0_$next_rhs$next_op))))
(assert (= y$774 (not y$802)))
(assert (= y$763 (not y$803)))
(assert (= y$752 (not y$804)))
(assert (= y$741 (not y$805)))
(assert (= y$724 (not y$806)))
(assert (= y$720 (not y$807)))
(assert (= y$716 (not y$808)))
(assert (= y$809 (and y$536 y$748 y$783 y$802 y$803 y$804 y$805 y$806 y$807 y$808)))
(assert (= y$809 (not y$811)))
(assert (= y$687 (not (= y$sr.tail y$rb.mem_0_$next_rhs_op))))
(assert (= y$148 (not y$601)))
(assert (= y$134 (not y$598)))
(assert (= y$121 (not y$595)))
(assert (= y$108 (not y$592)))
(assert (= y$85 (not y$590)))
(assert (= y$79 (not y$588)))
(assert (= y$72 (not y$586)))
(assert (= y$801 (and y$28 y$116 y$687 y$601 y$598 y$595 y$592 y$590 y$588 y$586)))
(assert (= y$801 (not y$810)))
(assert (= y$824 (and y$rb.empty y$3 y$5 y$7 y$9 y$11 y$13 y$15 y$sr.empty y$18 y$20 y$22 y$24 y$26 y$28 y$539 y$538 y$565 y$564 y$383 y$511 y$455 y$811 y$810)))
(assert y$824)
(check-sat)
(exit)
